c --- [ banner ] -------------------------------------------------------------
c 
c CaDiCaL Radically Simplified CDCL SAT Solver
c Copyright (c) 2016-2021 A. Biere, M. Fleury, N. Froleyks
c 
c Version 1.5.2 a5f15211db36c3956764e18194dd5bd63bf3b5e6
c g++ (GCC) 9.3.0 -Wall -Wextra -O3 -DNDEBUG
c Fri Oct 21 01:27:37 EDT 2022 Linux gra-login3 3.10.0-1160.66.1.el7.x86_64 x86_64
c 
c --- [ limit ] --------------------------------------------------------------
c 
c setting conflict limit to 200000 conflicts (due to '200000')
c 
c --- [ parsing input ] ------------------------------------------------------
c 
c reading DIMACS file from '33.cubes5159.adj'
c opening file to read '33.cubes5159.adj'
c found 'p cnf 6160 1595479' header
c parsed 1595479 clauses in 19.15 seconds process time
c closing file '33.cubes5159.adj'
c after reading 1457566803 bytes 1390.0 MB
c 
c --- [ options ] ------------------------------------------------------------
c 
c all options are set to their default value
c 
c --- [ solving ] ------------------------------------------------------------
c 
c time measured in process time since initialization
c 
c  seconds    reductions  redundant   irredundant
c          MB     restarts       trail       variables
c            level   conflicts       glue         remaining
c 
c * 19.16 1380  0 0   0    0    0  0% 0 1595422 2323 38%
c { 19.62 1417  0 0   0    0    0  0% 0 1595422 2323 38%
c i 21.40 1482 502 0   4   32   27 34% 14 1595422 2322 38%
c i 21.82 1492 411 0   7   44   35 32% 19 1595422 2320 38%
c i 22.17 1494 361 0   9   53   43 31% 32 1595422 2319 38%
c i 22.35 1495 332 0  11   60   48 31% 35 1595422 2318 38%
c i 22.57 1496 292 0  12   68   54 31% 32 1595422 2317 38%
c i 22.58 1496 288 0  13   69   54 31% 31 1595422 2316 38%
c i 22.87 1499 219 0  13   90   68 31% 26 1595422 2315 38%
c i 22.87 1499 213 0  13   93   69 31% 26 1595422 2314 38%
c i 22.87 1499 210 0  13   94   69 31% 26 1595422 2313 38%
c i 22.87 1499 208 0  13   95   69 31% 26 1595422 2312 38%
c i 22.87 1499 206 0  13   96   69 31% 25 1595422 2311 38%
c i 22.92 1499 190 0  13  105   75 31% 25 1595422 2310 38%
c i 22.93 1499 186 0  13  108   77 31% 24 1595422 2309 37%
c i 22.93 1499 185 0  13  109   77 31% 24 1595422 2308 37%
c i 22.95 1499 174 0  13  117   83 31% 24 1595422 2307 37%
c i 22.98 1499 164 0  13  126   89 31% 24 1595422 2306 37%
c i 23.17 1500 130 0  13  176  125 31% 23 1595422 2305 37%
c i 23.25 1501 120 0  14  197  143 31% 23 1595422 2304 37%
c 
c  seconds     reductions  redundant    irredundant
c          MB      restarts       trail        variables
c             level   conflicts       glue          remaining
c 
c i 23.26 1501 120 0  14  198  143 31% 23 1595422 2303 37%
c i 23.30 1501 110 0  14  223  157 31% 23 1595422 2302 37%
c i 23.31 1501 106 0  14  237  164 31% 23 1595422 2301 37%
c i 23.33 1501 105 0  14  240  166 31% 23 1595422 2300 37%
c i 23.37 1501 95 0  14  274  196 31% 22 1595422 2299 37%
c - 27.42 1449 89 1  14  300  213 31% 23 520874 2299 37%
c i 27.72 1404 86 1  14  317  225 31% 23 520874 2298 37%
c i 27.78 1404 83 1  14  331  232 31% 22 520874 2297 37%
c i 27.82 1404 79 1  14  347  238 31% 22 520874 2296 37%
c i 27.92 1404 67 1  14  436  302 31% 20 520874 2295 37%
c i 27.94 1404 65 1  14  461  320 31% 20 520874 2294 37%
c i 27.97 1404 59 1  14  524  363 31% 19 520874 2293 37%
c i 28.33 1404 56 1  23  620  425 31% 21 520874 2281 37%
c i 29.13 1405 56 1  32  658  454 31% 21 520874 2279 37%
c i 29.16 1406 56 1  33  661  456 31% 21 520874 2278 37%
c i 29.19 1406 56 1  34  663  456 31% 21 520874 2276 37%
c i 30.95 1408 59 1  49  789  562 30% 21 520874 2275 37%
c i 31.21 1409 61 1  50  811  582 30% 21 520874 2274 37%
c i 31.77 1410 58 1  56  870  630 30% 21 520874 2273 37%
c i 31.79 1410 58 1  56  873  632 30% 21 520874 2272 37%
c 
c  seconds    reductions  redundant   irredundant
c          MB     restarts       trail       variables
c            level   conflicts       glue         remaining
c 
c } 33.34 1411 62 1  88 1001  752 30% 24 520874 2272 37%
c [ 33.34 1411  0 1  88 1001  752  0% 0 520874 2272 37%
c O 33.34 1411  2 1  88 1002  753 13% 1 520874 2272 37%
c i 33.52 1411 10 1  88 1012  762 26% 7 520874 2271 37%
c i 33.63 1411 15 1  88 1036  782 32% 12 520874 2270 37%
c i 33.85 1411 22 1  88 1239  934 33% 19 520874 2269 37%
c - 34.83 1635 23 2  88 1330  917 33% 20 520616 2269 37%
c - 35.85 1634 22 3  89 2876 1290 33% 20 520616 2269 37%
c ] 35.92 1634 22 3  89 3001 1349 33% 20 520616 2269 37%
c { 35.92 1634 62 3  89 3001 1349 30% 24 520616 2269 37%
c F 36.31 1634 62 3  90 3003 1351 31% 24 520616 2269 37%
c i 36.84 1634 58 3  93 3131 1463 48% 23 520616 2268 37%
c i 37.13 1634 57 3 100 3216 1528 48% 23 520616 2267 37%
c i 37.14 1634 57 3 100 3223 1534 48% 23 520616 2266 37%
c i 37.30 1634 56 3 100 3318 1600 46% 23 520616 2265 37%
c i 37.30 1634 56 3 100 3319 1600 46% 23 520616 2264 37%
c i 37.30 1634 56 3 100 3320 1600 46% 23 520616 2263 37%
c i 37.30 1634 55 3 100 3322 1601 46% 23 520616 2262 37%
c i 37.30 1634 55 3 100 3324 1601 46% 23 520616 2261 37%
c i 37.31 1634 55 3 100 3331 1604 46% 23 520616 2260 37%
c 
c  seconds    reductions  redundant   irredundant
c          MB     restarts       trail       variables
c            level   conflicts       glue         remaining
c 
c i 37.70 1634 54 3 104 3511 1760 46% 23 520616 2259 37%
c i 37.73 1634 53 3 104 3536 1776 46% 23 520616 2258 37%
c i 37.74 1634 53 3 104 3537 1776 46% 23 520616 2257 37%
c i 37.83 1634 54 3 105 3577 1812 46% 23 520616 2256 37%
c i 37.86 1634 54 3 105 3584 1817 46% 23 520616 2255 37%
c i 38.17 1634 51 3 105 3738 1948 46% 22 520616 2254 37%
c i 38.22 1634 50 3 105 3770 1977 47% 22 520616 2253 37%
c i 38.31 1634 50 3 105 3804 2009 47% 22 520616 2252 37%
c i 38.33 1634 50 3 105 3809 2012 47% 22 520616 2251 37%
c i 38.33 1634 50 3 105 3810 2012 47% 22 520616 2250 37%
c i 38.34 1634 50 3 105 3829 2025 46% 21 520616 2249 37%
c i 38.45 1634 49 3 105 3877 2061 46% 21 520616 2248 36%
c i 38.51 1634 49 3 106 3892 2074 46% 22 520616 2247 36%
c i 38.87 1634 49 3 115 3958 2124 46% 21 520616 2246 36%
c - 41.31 1626 42 4 160 4937 2081 48% 21 520547 2246 36%
c 2 42.37 1626 41 4 160 5002 3091 48% 21 520528 2219 36%
c p 45.45 1626 41 4 160 5002 6216 48% 21 520528 2171 35%
c d 46.19 1626 41 4 160 5002 5975 48% 21 436991 2168 35%
c # 47.40 1626 36 4 160 6004 6672 49% 20 436989 2167 35%
c } 48.45 1626 33 4 178 7002 7393 49% 19 436989 2167 35%
c 
c  seconds    reductions  redundant   irredundant
c          MB     restarts       trail       variables
c            level   conflicts       glue         remaining
c 
c [ 48.45 1626 22 4 178 7002 7393 89% 20 436989 2167 35%
c - 49.08 1342 22 5 179 7511 2989 81% 20 436989 2167 35%
c I 50.20 1342 22 5 180 10005 4467 66% 20 436989 2167 35%
c - 51.60 1507 26 6 181 10464 3165 64% 22 436989 2167 35%
c - 54.80 1342 28 7 183 13908 3789 57% 24 436989 2167 35%
c ] 56.42 1343 29 7 183 15003 4573 56% 24 436989 2167 35%
c { 56.42 1343 33 7 183 15003 4573 49% 19 436989 2167 35%
c 2 56.52 1342 33 7 184 15003 5676 49% 19 436989 2167 35%
c p 59.67 1343 33 7 184 15003 9289 49% 19 436989 2167 35%
c B 60.18 1343 33 7 185 15008 9294 49% 19 436989 2167 35%
c - 62.81 1507 28 8 224 17845 4392 49% 18 436989 2167 35%
c s 63.31 1507 26 8 224 18851 4725 50% 17 434614 2167 35%
c v 68.10 1507 26 8 224 18851 4725 50% 17 434596 2167 35%
c t 68.22 1507 26 8 224 18851 4709 50% 17 434583 2167 35%
c e 69.74 1508 26 8 224 18851 4455 50% 17 432442 928 15%
c s 69.89 1508 26 8 224 18851 4450 50% 17 431355 928 15%
c W 74.46 1344 24 8 293 21009 5687 69% 16 431355 928 15%
c - 77.59 1344 25 9 437 22276 4983 69% 17 431355 928 15%
c - 89.10 1344 25 10 724 27180 5556 69% 17 431355 928 15%
c F 89.78 1344 24 10 726 28012 6041 69% 17 431355 928 15%
c 
c  seconds    reductions    redundant   irredundant
c          MB      restarts        trail       variables
c            level     conflicts       glue        remaining
c 
c 3 93.94 1344 24 10 831 30006 7904 69% 17 431355 928 15%
c p 99.11 1344 24 10 831 30006 10164 69% 17 431355 926 15%
c } 100.82 1344 24 10 861 31007 10813 69% 17 431355 926 15%
c [ 100.82 1344 29 10 861 31007 10813 137% 24 431355 926 15%
c ] 101.56 1344 28 10 861 32179 11448 130% 23 431355 926 15%
c 1 101.56 1344 28 10 861 32179 11448 130% 23 431355 926 15%
c 
c --- [ writing output ] -----------------------------------------------------
c 
c writing simplified CNF to DIMACS file 'simp/33.cubes5159.adj.simp1'
c * 101.57 1344 28 10 861 32179 11448 130% 23 431355 926 15%
c opening file to write 'simp/33.cubes5159.adj.simp1'
c writing 'p cnf 6160 431349' header
c closing file 'simp/33.cubes5159.adj.simp1'
c after writing 185415625 bytes 176.8 MB
c wrote 431349 clauses in 1.41 seconds process time
c 
c --- [ writing extension ] --------------------------------------------------
c 
c writing extension stack to 'simp/33.cubes5159.adj.ext1'
c opening file to write 'simp/33.cubes5159.adj.ext1'
c closing file 'simp/33.cubes5159.adj.ext1'
c after writing 83511 bytes 0.1 MB
c wrote 3728 witnesses in 0.00 seconds process time
c 
c --- [ result ] -------------------------------------------------------------
c 
s SATISFIABLE
c 
c --- [ run-time profiling ] -------------------------------------------------
c 
c process time taken by individual solving procedures
c (percentage relative to process time for solving)
c 
c        60.90   73.90% search
c        48.82   59.24% unstable
c        21.51   26.10% simplify
c        19.15   23.24% parse
c        11.31   13.73% probe
c        11.29   13.70% stable
c         4.86    5.90% vivify
c         2.82    3.43% elim
c         0.46    0.56% lucky
c         0.33    0.40% walk
c         0.29    0.35% subsume
c         0.19    0.23% ternary
c   =================================
c        82.41   80.03% solve
c 
c last line shows process time for solving
c (percentage relative to total process time)
c 
c --- [ statistics ] ---------------------------------------------------------
c 
c chronological:              6254        19.44 %  of conflicts
c conflicts:                 32179       390.48    per second
c decisions:                 79835       968.76    per second
c eliminated:                 1239        20.11 %  of all variables
c fixed:                       838        13.60 %  of all variables
c learned:                   31404        97.59 %  per conflict
c learned_lits:            5144081       100.00 %  learned literals
c minimized:                     0         0.00 %  learned literals
c shrunken:                3767342        73.24 %  learned literals
c minishrunken:             245663         4.78 %  learned literals
c propagations:            3719320         0.05 M  per second
c reduced:                   11659        36.23 %  per conflict
c rephased:                      7      4597.00    interval
c restarts:                    861        37.37    interval
c stabilizing:                   3        34.72 %  of conflicts
c substituted:                  13         0.21 %  of all variables
c subsumed:                  14260         0.41 %  of all clauses
c strengthened:               3848         0.11 %  of all clauses
c ternary:                    2554         0.66 %  of resolved
c vivified:                     20         0.00 %  of all clauses
c walked:                        1     32179.00    interval
c weakened:                   2890         3.12    average size
c 
c seconds are measured in process time for solving
c 
c --- [ resources ] ----------------------------------------------------------
c 
c total process time since initialization:       102.97    seconds
c total real time since initialization:          105.40    seconds
c maximum resident set size of process:         1857.38    MB
c 
c --- [ shutting down ] ------------------------------------------------------
c 
c exit 10
WARNING! DIMACS header mismatch: wrong number of variables.
============================[ Problem Statistics ]=============================
|                                                                             |
|  Number of variables:          3764                                         |
|  Number of clauses:          431349                                         |
|  Parse time:                   2.45 s                                       |
|  Simplification time:          0.05 s                                       |
|                                                                             |
============================[ Search Statistics ]====================================================
| Conflicts |          ORIGINAL         |          LEARNT          | Num Sols |      SUBGRAPHS      |
|           |    Vars  Clauses Literals |    Limit  Clauses Lit/Cl |          | Canonical Noncanon. |
=====================================================================================================
|       123 |    3673   431372 40732871 |     2000      123     85 |        0 |        36        23 |
|       276 |    3673   431375 40732917 |     2000      276     89 |        0 |        43        26 |
|       511 |    3673   431385 40733203 |     2000      511     80 |        0 |        65        36 |
|       998 |    3673   431535 40735193 |     2000      998     73 |        0 |       102       186 |
|      1535 |    3673   431566 40735614 |     2000     1535     76 |        0 |       119       217 |
|      2308 |    3673   431580 40735904 |     3600     1308     39 |        0 |       143       231 |
|      3472 |    3673   431605 40736761 |     3600     2472     56 |        0 |       165       256 |
|      5272 |    3673   431697 40738116 |     5000     2472     43 |        0 |       213       348 |
|      7865 |    3673   431728 40738657 |     6305     2570     32 |        0 |       245       379 |
|     11970 |    3673   431989 40743460 |     7557     3527     30 |        0 |       378       640 |
|     17887 |    3673   432140 40746104 |     8782     5669     46 |        0 |       412       791 |
|     26714 |    3673   432318 40749637 |    11207     5121     23 |        0 |       460       969 |
|     39817 |    3673   432447 40752125 |    13609     6426     29 |        0 |       511      1098 |
|     59316 |    3673   432485 40753020 |    16009    11725     46 |        0 |       529      1136 |
|     88730 |    3673   432707 40757478 |    19612    15342     53 |        0 |       610      1358 |
|    135235 |    3673   435423 40799632 |    24409    19044     58 |        0 |       953      4074 |
|    201060 |    3673   435564 40802594 |    30411    17871     48 |        0 |      1144      4215 |
|    299964 |    3673   435942 40810342 |    36412    34776     66 |        0 |      1282      4593 |
|    448626 |    3673   436815 40828368 |    44805    43431     74 |        0 |      1792      5466 |
|    671377 |    3673   437883 40853819 |    55615    42992     68 |        0 |      2163      6534 |
|   1009859 |    3673   443840 40972016 |    68812    42671     52 |       16 |      4193     12475 |
|   1511130 |    3673   446323 41023350 |    84415    49945     46 |       16 |      5031     14958 |
|   2294490 |    3673   481501 41784258 |   103623    86113     64 |       16 |     14337     50136 |
|   3443567 |    3673   508304 42242461 |   127607    85174     48 |       26 |     22121     76929 |
=====================================================================================================
Number of solutions   : 26
Canonical subgraphs   : 29668          (10 /sec)
          order  3    : 1              (125000 /sec)
          order  4    : 1              (500000 /sec)
          order  5    : 1              (200000 /sec)
          order  6    : 1              (52632 /sec)
          order  7    : 1              (8333 /sec)
          order  8    : 2              (1366 /sec)
          order  9    : 6              (316 /sec)
          order 10    : 12             (59 /sec)
          order 11    : 40             (15 /sec)
          order 12    : 272            (12 /sec)
          order 13    : 296            (4 /sec)
          order 14    : 2096           (10 /sec)
          order 15    : 6399           (13 /sec)
          order 16    : 9644           (10 /sec)
          order 17    : 6766           (10 /sec)
          order 18    : 3181           (8 /sec)
          order 19    : 441            (9 /sec)
          order 20    : 229            (11 /sec)
          order 21    : 253            (10 /sec)
          order 22    : 26             (1 /sec)
Noncanonical subgraphs: 95659          (108 /sec)
          order  3    : 0              (-nan /sec)
          order  4    : 0              (-nan /sec)
          order  5    : 0              (-nan /sec)
          order  6    : 0              (-nan /sec)
          order  7    : 0              (-nan /sec)
          order  8    : 0              (-nan /sec)
          order  9    : 0              (-nan /sec)
          order 10    : 0              (-nan /sec)
          order 11    : 0              (-nan /sec)
          order 12    : 0              (-nan /sec)
          order 13    : 1183           (3197 /sec)
          order 14    : 10118          (838 /sec)
          order 15    : 8339           (953 /sec)
          order 16    : 71102          (94 /sec)
          order 17    : 2478           (85 /sec)
          order 18    : 2158           (45 /sec)
          order 19    : 0              (-nan /sec)
          order 20    : 0              (-nan /sec)
          order 21    : 0              (-nan /sec)
Canonicity checking   : 2994.25 s
Noncanonicity checking: 884.781 s
Total canonicity time : 3879.03 s
database reductions   : 115
restarts              : 7446
conflicts             : 4210974        (765 /sec)
decisions             : 5178125        (0.00 % random) (941 /sec)
propagations          : 219328256      (39838 /sec)
conflict literals     : 410749061      (57.11 % deleted)
actual reward         : 0.240711
Memory used           : 620.00 MB
CPU time              : 5505.53 s

UNSATISFIABLE
